3 34 1
5 411 2 11 2 11 2 11 2 11 2 11 2 11 2 11 2 11 2 11 2 11 2 11 2 11 2 11 2 11 2 11 2 11 2 11 2 11 2 11 2 11 2 11 2 11 2 11 2 11 2 11 2 11 2 11 2 11 2 11 2 11 2 11 2 11 2 11 2 11 2 11 2 11 2 11 2 11 2 11 2 11 2 11 2 11 2 11 2 11 2 11 2 11 2 11 2 11 2 11 2 11 2 11 2 11 2 11 2 11 2 11 2 11 2 11 2 11 2 11 2 11 2 11 2 11 2 11 2 11 2 11 2 11 2 11 2 11 2 11 2 11 2 11 2 11 2 11 2 11 2 11 2 11 2 11 2 11 2 11 2 11 2 11 2 11 2 11 2 11 2 11 2 11 2 11 2 11 2 11 2 11 2 11 2 11 2 11 2 11 2 11 2 11 2 11 2 11 2 11 2 11 2 11 2 11 2 11 2 11 2 11 2 11 2 11 2 11 2 11 2 11 2 11 2 11 2 11 2 11 2 11 2 11 2 11 2 11 2 11 2 11 2 11 2 11 2 11 2 11 2 11 2 11 2 11 2 11 2 11 2 11 2 11 2 11 2 11 2 11 2 11 2 11 2 11 2 11 2 11 2 11 2 11 2 11 2 11 2 11 2 11 2 11 2 11 2 11 2 11 2 11 2 11 2 11 2 11 2 11 2 11 2 11 2 11 2 11 2 11 2 11 2 11 2 11 2 11 2 11 2 11 2 11 2 11 2 11 2 11 2 11 2 11 2 11 2 11 2 11 2 11 2 11 2 11 2 11 2 11 2 11 2 11 2 11 2 11 2 11 2 11 2 11 2 11 2 11 2 11 2 11 2 11 2 11 2 11 2 11 2 11 2 11 2 11 2 11 2 11 2 11 2 11 2 11 2 11 2 11 2 11 2 11 2 11 2 11 2 11 2 11 2 11 2 11 2 11 2 11 2 11 2 11 2 11 2 11 2 11 2 11 2 11 2 11 2 11 2 11 2 11 2 11 2 11 2 11 2 11 2 11 2 11 2 11 2 11 2 11 2 11 2 11 2 11 2 11 2 11 2 11 2 11 2 11 2 11 2 11 2 11 2 11 2 11 2 11 2 11 2 11 2 11 2 11 2 11 2 11 2 11 2 11 2 11 2 11 2 11 2 11 2 11 2 11 2 11 2 11 2 11 2 11 2 11 2 11 2 11 2 11 2 11 2 11 2 11 2 11 2 11 2 11 2 11 2 11 2 11 2 11 2 11 2 11 2 11 2 11 2 11 2 11 2 11 2 11 2 11 2 11 2 11 2 11 2 11 2 11 2 11 2 11 2 11 2 11 2 11 2 11 2 11 2 11 2 11 2 11 2 11 2 11 2 11 2 11 2 11 2 11 2 11 2 11 2 11 2 11 2 11 2 11 2 11 2 11 2 11 2 11 2 11 2 11 2 11 2 11 2 11 2 11 2 11 2 11 2 11 2 11 2 11 2 11 2 11 2 11 2 11 2 11 2 11 2 11 2 11 2 11 2 11 2 11 2 11 2 11 2 11 2 11 2 11 2 11 2 11 2 11 2 11 2 11 2 11 2 11 2 11 2 11 2 11 2 11 2 11 2 11 2 11 2 11 2 11 2 11 2 11 2 11 2 11 2 11 2 11 2 11 2 11 2 11 2 11 2 11 2 11 2 11 2 11 2 11 2 11 2 11 2 11 2 11 2 11 2 11 2 11 2 11 2 11 2 11 2 11 2 11 2 11 2 11 2 11 2 11 2 11 2 11 2 11 2 11 2 11 2 11 2 11 2 11 2 11 2 11 2 11 2 11 2 11 2 11 2 11 2 11 2 11 411 3 12 3 12 3 12 3 12 3 12 3 12 3 12 3 12 3 12 3 12 3 12 3 12 3 12 3 12 3 12 3 12 3 12 3 12 3 12 3 12 3 12 3 12 3 12 3 12 3 12 3 12 3 12 3 12 3 12 3 12 3 12 3 12 3 12 3 12 3 12 3 12 3 12 3 12 3 12 3 12 3 12 3 12 3 12 3 12 3 12 3 12 3 12 3 12 3 12 3 12 3 12 3 12 3 12 3 12 3 12 3 12 3 12 3 12 3 12 3 12 3 12 3 12 3 12 3 12 3 12 3 12 3 12 3 12 3 12 3 12 3 12 3 12 3 12 3 12 3 12 3 12 3 12 3 12 3 12 3 12 3 12 3 12 3 12 3 12 3 12 3 12 3 12 3 12 3 12 3 12 3 12 3 12 3 12 3 12 3 12 3 12 3 12 3 12 3 12 3 12 3 12 3 12 3 12 3 12 3 12 3 12 3 12 3 12 3 12 3 12 3 12 3 12 3 12 3 12 3 12 3 12 3 12 3 12 3 12 3 12 3 12 3 12 3 12 3 12 3 12 3 12 3 12 3 12 3 12 3 12 3 12 3 12 3 12 3 12 3 12 3 12 3 12 3 12 3 12 3 12 3 12 3 12 3 12 3 12 3 12 3 12 3 12 3 12 3 12 3 12 3 12 3 12 3 12 3 12 3 12 3 12 3 12 3 12 3 12 3 12 3 12 3 12 3 12 3 12 3 12 3 12 3 12 3 12 3 12 3 12 3 12 3 12 3 12 3 12 3 12 3 12 3 12 3 12 3 12 3 12 3 12 3 12 3 12 3 12 3 12 3 12 3 12 3 12 3 12 3 12 3 12 3 12 3 12 3 12 3 12 3 12 3 12 3 12 3 12 3 12 3 12 3 12 3 12 3 12 3 12 3 12 3 12 3 12 3 12 3 12 3 12 3 12 3 12 3 12 3 12 3 12 3 12 3 12 3 12 3 12 3 12 3 12 3 12 3 12 3 12 3 12 3 12 3 12 3 12 3 12 3 12 3 12 3 12 3 12 3 12 3 12 3 12 3 12 3 12 3 12 3 12 3 12 3 12 3 12 3 12 3 12 3 12 3 12 3 12 3 12 3 12 3 12 3 12 3 12 3 12 3 12 3 12 3 12 3 12 3 12 3 12 3 12 3 12 3 12 3 12 3 12 3 12 3 12 3 12 3 12 3 12 3 12 3 12 3 12 3 12 3 12 3 12 3 12 3 12 3 12 3 12 3 12 3 12 3 12 3 12 3 12 3 12 3 12 3 12 3 12 3 12 3 12 3 12 3 12 3 12 3 12 3 12 3 12 3 12 3 12 3 12 3 12 3 12 3 12 3 12 3 12 3 12 3 12 3 12 3 12 3 12 3 12 3 12 3 12 3 12 3 12 3 12 3 12 3 12 3 12 3 12 3 12 3 12 3 12 3 12 3 12 3 12 3 12 3 12 3 12 3 12 3 12 3 12 3 12 3 12 3 12 3 12 3 12 3 12 3 12 3 12 3 12 3 12 3 12 3 12 3 12 3 12 3 12 3 12 3 12 3 12 3 12 3 12 3 12 3 12 3 12 3 12 3 12 3 12 3 12 3 12 3 12 3 12 3 12 3 12 3 12 3 12 3 12 3 12 3 12 3 12 3 12 3 12 3 12 3 12 3 12 3 12 3 12 3 12 3 12 3 12 3 12 3 12 3 12 3 12 3 12 3 12 3 12 3 12 3 12 3 12 3 12 3 12 3 12 3 12 3 12 3 12 3 12 3 12 3 12 3 12 3 12 3 12 3 12 3 12 3 12 3 12 3 12 3 12 3 12 3 12 411 3 12 3 12 3 12 3 12 3 12 3 12 3 12 3 12 3 12 3 12 3 12 3 12 3 12 3 12 3 12 3 12 3 12 3 12 3 12 3 12 3 12 3 12 3 12 3 12 3 12 3 12 3 12 3 12 3 12 3 12 3 12 3 12 3 12 3 12 3 12 3 12 3 12 3 12 3 12 3 12 3 12 3 12 3 12 3 12 3 12 3 12 3 12 3 12 3 12 3 12 3 12 3 12 3 12 3 12 3 12 3 12 3 12 3 12 3 12 3 12 3 12 3 12 3 12 3 12 3 12 3 12 3 12 3 12 3 12 3 12 3 12 3 12 3 12 3 12 3 12 3 12 3 12 3 12 3 12 3 12 3 12 3 12 3 12 3 12 3 12 3 12 3 12 3 12 3 12 3 12 3 12 3 12 3 12 3 12 3 12 3 12 3 12 3 12 3 12 3 12 3 12 3 12 3 12 3 12 3 12 3 12 3 12 3 12 3 12 3 12 3 12 3 12 3 12 3 12 3 12 3 12 3 12 3 12 3 12 3 12 3 12 3 12 3 12 3 12 3 12 3 12 3 12 3 12 3 12 3 12 3 12 3 12 3 12 3 12 3 12 3 12 3 12 3 12 3 12 3 12 3 12 3 12 3 12 3 12 3 12 3 12 3 12 3 12 3 12 3 12 3 12 3 12 3 12 3 12 3 12 3 12 3 12 3 12 3 12 3 12 3 12 3 12 3 12 3 12 3 12 3 12 3 12 3 12 3 12 3 12 3 12 3 12 3 12 3 12 3 12 3 12 3 12 3 12 3 12 3 12 3 12 3 12 3 12 3 12 3 12 3 12 3 12 3 12 3 12 3 12 3 12 3 12 3 12 3 12 3 12 3 12 3 12 3 12 3 12 3 12 3 12 3 12 3 12 3 12 3 12 3 12 3 12 3 12 3 12 3 12 3 12 3 12 3 12 3 12 3 12 3 12 3 12 3 12 3 12 3 12 3 12 3 12 3 12 3 12 3 12 3 12 3 12 3 12 3 12 3 12 3 12 3 12 3 12 3 12 3 12 3 12 3 12 3 12 3 12 3 12 3 12 3 12 3 12 3 12 3 12 3 12 3 12 3 12 3 12 3 12 3 12 3 12 3 12 3 12 3 12 3 12 3 12 3 12 3 12 3 12 3 12 3 12 3 12 3 12 3 12 3 12 3 12 3 12 3 12 3 12 3 12 3 12 3 12 3 12 3 12 3 12 3 12 3 12 3 12 3 12 3 12 3 12 3 12 3 12 3 12 3 12 3 12 3 12 3 12 3 12 3 12 3 12 3 12 3 12 3 12 3 12 3 12 3 12 3 12 3 12 3 12 3 12 3 12 3 12 3 12 3 12 3 12 3 12 3 12 3 12 3 12 3 12 3 12 3 12 3 12 3 12 3 12 3 12 3 12 3 12 3 12 3 12 3 12 3 12 3 12 3 12 3 12 3 12 3 12 3 12 3 12 3 12 3 12 3 12 3 12 3 12 3 12 3 12 3 12 3 12 3 12 3 12 3 12 3 12 3 12 3 12 3 12 3 12 3 12 3 12 3 12 3 12 3 12 3 12 3 12 3 12 3 12 3 12 3 12 3 12 3 12 3 12 3 12 3 12 3 12 3 12 3 12 3 12 3 12 3 12 3 12 3 12 3 12 3 12 3 12 3 12 3 12 3 12 3 12 3 12 3 12 3 12 3 12 3 12 3 12 3 12 3 12 3 12 3 12 3 12 3 12 3 12 3 12 3 12 3 12 3 12 3 12 3 12 3 12 3 12 3 12 3 12 3 12 3 12 3 12 3 12 3 12 3 12 3 12 3 12 3 12 411 3 12 3 12 3 12 3 12 3 12 3 12 3 12 3 12 3 12 3 12 3 12 3 12 3 12 3 12 3 12 3 12 3 12 3 12 3 12 3 12 3 12 3 12 3 12 3 12 3 12 3 12 3 12 3 12 3 12 3 12 3 12 3 12 3 12 3 12 3 12 3 12 3 12 3 12 3 12 3 12 3 12 3 12 3 12 3 12 3 12 3 12 3 12 3 12 3 12 3 12 3 12 3 12 3 12 3 12 3 12 3 12 3 12 3 12 3 12 3 12 3 12 3 12 3 12 3 12 3 12 3 12 3 12 3 12 3 12 3 12 3 12 3 12 3 12 3 12 3 12 3 12 3 12 3 12 3 12 3 12 3 12 3 12 3 12 3 12 3 12 3 12 3 12 3 12 3 12 3 12 3 12 3 12 3 12 3 12 3 12 3 12 3 12 3 12 3 12 3 12 3 12 3 12 3 12 3 12 3 12 3 12 3 12 3 12 3 12 3 12 3 12 3 12 3 12 3 12 3 12 3 12 3 12 3 12 3 12 3 12 3 12 3 12 3 12 3 12 3 12 3 12 3 12 3 12 3 12 3 12 3 12 3 12 3 12 3 12 3 12 3 12 3 12 3 12 3 12 3 12 3 12 3 12 3 12 3 12 3 12 3 12 3 12 3 12 3 12 3 12 3 12 3 12 3 12 3 12 3 12 3 12 3 12 3 12 3 12 3 12 3 12 3 12 3 12 3 12 3 12 3 12 3 12 3 12 3 12 3 12 3 12 3 12 3 12 3 12 3 12 3 12 3 12 3 12 3 12 3 12 3 12 3 12 3 12 3 12 3 12 3 12 3 12 3 12 3 12 3 12 3 12 3 12 3 12 3 12 3 12 3 12 3 12 3 12 3 12 3 12 3 12 3 12 3 12 3 12 3 12 3 12 3 12 3 12 3 12 3 12 3 12 3 12 3 12 3 12 3 12 3 12 3 12 3 12 3 12 3 12 3 12 3 12 3 12 3 12 3 12 3 12 3 12 3 12 3 12 3 12 3 12 3 12 3 12 3 12 3 12 3 12 3 12 3 12 3 12 3 12 3 12 3 12 3 12 3 12 3 12 3 12 3 12 3 12 3 12 3 12 3 12 3 12 3 12 3 12 3 12 3 12 3 12 3 12 3 12 3 12 3 12 3 12 3 12 3 12 3 12 3 12 3 12 3 12 3 12 3 12 3 12 3 12 3 12 3 12 3 12 3 12 3 12 3 12 3 12 3 12 3 12 3 12 3 12 3 12 3 12 3 12 3 12 3 12 3 12 3 12 3 12 3 12 3 12 3 12 3 12 3 12 3 12 3 12 3 12 3 12 3 12 3 12 3 12 3 12 3 12 3 12 3 12 3 12 3 12 3 12 3 12 3 12 3 12 3 12 3 12 3 12 3 12 3 12 3 12 3 12 3 12 3 12 3 12 3 12 3 12 3 12 3 12 3 12 3 12 3 12 3 12 3 12 3 12 3 12 3 12 3 12 3 12 3 12 3 12 3 12 3 12 3 12 3 12 3 12 3 12 3 12 3 12 3 12 3 12 3 12 3 12 3 12 3 12 3 12 3 12 3 12 3 12 3 12 3 12 3 12 3 12 3 12 3 12 3 12 3 12 3 12 3 12 3 12 3 12 3 12 3 12 3 12 3 12 3 12 3 12 3 12 3 12 3 12 3 12 3 12 3 12 3 12 3 12 3 12 3 12 3 12 3 12 3 12 3 12 3 12 3 12 3 12 3 12 3 12 3 12 3 12 3 12 3 12 3 12 3 12 3 12 3 12 3 12 3 12 3 12 3 12 3 12 3 12 3 12 3 12 3 12 411 3 12 3 12 3 12 3 12 3 12 3 12 3 12 3 12 3 12 3 12 3 12 3 12 3 12 3 12 3 12 3 12 3 12 3 12 3 12 3 12 3 12 3 12 3 12 3 12 3 12 3 12 3 12 3 12 3 12 3 12 3 12 3 12 3 12 3 12 3 12 3 12 3 12 3 12 3 12 3 12 3 12 3 12 3 12 3 12 3 12 3 12 3 12 3 12 3 12 3 12 3 12 3 12 3 12 3 12 3 12 3 12 3 12 3 12 3 12 3 12 3 12 3 12 3 12 3 12 3 12 3 12 3 12 3 12 3 12 3 12 3 12 3 12 3 12 3 12 3 12 3 12 3 12 3 12 3 12 3 12 3 12 3 12 3 12 3 12 3 12 3 12 3 12 3 12 3 12 3 12 3 12 3 12 3 12 3 12 3 12 3 12 3 12 3 12 3 12 3 12 3 12 3 12 3 12 3 12 3 12 3 12 3 12 3 12 3 12 3 12 3 12 3 12 3 12 3 12 3 12 3 12 3 12 3 12 3 12 3 12 3 12 3 12 3 12 3 12 3 12 3 12 3 12 3 12 3 12 3 12 3 12 3 12 3 12 3 12 3 12 3 12 3 12 3 12 3 12 3 12 3 12 3 12 3 12 3 12 3 12 3 12 3 12 3 12 3 12 3 12 3 12 3 12 3 12 3 12 3 12 3 12 3 12 3 12 3 12 3 12 3 12 3 12 3 12 3 12 3 12 3 12 3 12 3 12 3 12 3 12 3 12 3 12 3 12 3 12 3 12 3 12 3 12 3 12 3 12 3 12 3 12 3 12 3 12 3 12 3 12 3 12 3 12 3 12 3 12 3 12 3 12 3 12 3 12 3 12 3 12 3 12 3 12 3 12 3 12 3 12 3 12 3 12 3 12 3 12 3 12 3 12 3 12 3 12 3 12 3 12 3 12 3 12 3 12 3 12 3 12 3 12 3 12 3 12 3 12 3 12 3 12 3 12 3 12 3 12 3 12 3 12 3 12 3 12 3 12 3 12 3 12 3 12 3 12 3 12 3 12 3 12 3 12 3 12 3 12 3 12 3 12 3 12 3 12 3 12 3 12 3 12 3 12 3 12 3 12 3 12 3 12 3 12 3 12 3 12 3 12 3 12 3 12 3 12 3 12 3 12 3 12 3 12 3 12 3 12 3 12 3 12 3 12 3 12 3 12 3 12 3 12 3 12 3 12 3 12 3 12 3 12 3 12 3 12 3 12 3 12 3 12 3 12 3 12 3 12 3 12 3 12 3 12 3 12 3 12 3 12 3 12 3 12 3 12 3 12 3 12 3 12 3 12 3 12 3 12 3 12 3 12 3 12 3 12 3 12 3 12 3 12 3 12 3 12 3 12 3 12 3 12 3 12 3 12 3 12 3 12 3 12 3 12 3 12 3 12 3 12 3 12 3 12 3 12 3 12 3 12 3 12 3 12 3 12 3 12 3 12 3 12 3 12 3 12 3 12 3 12 3 12 3 12 3 12 3 12 3 12 3 12 3 12 3 12 3 12 3 12 3 12 3 12 3 12 3 12 3 12 3 12 3 12 3 12 3 12 3 12 3 12 3 12 3 12 3 12 3 12 3 12 3 12 3 12 3 12 3 12 3 12 3 12 3 12 3 12 3 12 3 12 3 12 3 12 3 12 3 12 3 12 3 12 3 12 3 12 3 12 3 12 3 12 3 12 3 12 3 12 3 12 3 12 3 12 3 12 3 12 3 12 3 12 3 12 3 12 3 12 3 12 3 12 3 12 3 12 3 12 3 12 3 12 3 12 3 12 3 12 3 12 3 12 3 12 3 12 3 12 3 12
1 42 34 21 34 21 34 21 34 21 34 21 34 21 34 21 34 21 34 21 34 21 34 21 34 21 34 21 34 21 34 21 34 21 34 21 34 21 34 21 34 21 34 21 34 21 34 21 34 21 34 21 34 21 34 21 34 21 34 21 34 21 34 21 34 21 34 21 34 21 34 21 34 21 34 21 34 21 34 21 34 21 34 21 34 21
2 114 6 28 6 28 6 28 6 28 6 28 6 28 6 28 6 28 6 28 6 28 6 28 6 28 6 28 6 28 6 28 6 28 6 28 6 28 6 28 6 28 6 28 6 28 6 28 6 28 6 28 6 28 6 28 6 28 6 28 6 28 6 28 6 28 6 28 6 28 6 28 6 28 6 28 6 28 6 28 6 28 6 28 6 28 6 28 6 28 6 28 6 28 6 28 6 28 6 28 6 28 6 28 6 28 6 28 6 28 6 28 6 28 6 28 6 28 6 28 6 28 6 28 6 28 6 28 6 28 6 28 6 28 6 28 6 28 6 28 6 28 6 28 6 28 6 28 6 28 6 28 6 28 6 28 6 28 6 28 6 28 6 28 6 28 6 28 6 28 6 28 6 28 6 28 6 28 6 28 6 28 6 28 6 28 6 28 6 28 6 28 6 28 6 28 6 28 6 28 6 28 6 28 6 28 6 28 6 28 6 28 6 28 6 28 6 28 6 28 6 28 6 28 6 28 6 28 6 28 114 10 28 10 28 10 28 10 28 10 28 10 28 10 28 10 28 10 28 10 28 10 28 10 28 10 28 10 28 10 28 10 28 10 28 10 28 10 28 10 28 10 28 10 28 10 28 10 28 10 28 10 28 10 28 10 28 10 28 10 28 10 28 10 28 10 28 10 28 10 28 10 28 10 28 10 28 10 28 10 28 10 28 10 28 10 28 10 28 10 28 10 28 10 28 10 28 10 28 10 28 10 28 10 28 10 28 10 28 10 28 10 28 10 28 10 28 10 28 10 28 10 28 10 28 10 28 10 28 10 28 10 28 10 28 10 28 10 28 10 28 10 28 10 28 10 28 10 28 10 28 10 28 10 28 10 28 10 28 10 28 10 28 10 28 10 28 10 28 10 28 10 28 10 28 10 28 10 28 10 28 10 28 10 28 10 28 10 28 10 28 10 28 10 28 10 28 10 28 10 28 10 28 10 28 10 28 10 28 10 28 10 28 10 28 10 28 10 28 10 28 10 28 10 28 10 28 10 28
